100
32
2
9
22
16
1
14
21
30
5
13
18
12
13
14
30
9
9
13
19
1
8
9
8
9
17
2
1
2
1
20
3
3
17
4
1
1
5
5
3
1
4
4
1
4
2
5
21
17
1
1
1
4
1
4
23
3
2
4
4
4
1
19
3
17
6
2
2
1
2
3
6
4
17
2
1
2
2
1
4
17
4
4
2
2
1
1
2
1
2
1
1
1
4
2
17
2
3
1
1
1